(set-logic QF_LRA)
(declare-fun X0 () Real )
(declare-fun Y0 () Real )
(declare-fun X1 () Real )
(declare-fun Y1 () Real )
(declare-fun X2 () Real )
(declare-fun Y2 () Real )
(declare-fun X3 () Real )
(declare-fun Y3 () Real )
(declare-fun X4 () Real )
(declare-fun Y4 () Real )
(declare-fun X5 () Real )
(declare-fun Y5 () Real )
(declare-fun X6 () Real )
(declare-fun Y6 () Real )
(declare-fun X7 () Real )
(declare-fun Y7 () Real )
(declare-fun X8 () Real )
(declare-fun Y8 () Real )
(declare-fun X9 () Real )
(declare-fun Y9 () Real )
(declare-fun X10 () Real )
(declare-fun Y10 () Real )
(declare-fun X11 () Real )
(declare-fun Y11 () Real )
(declare-fun X12 () Real )
(declare-fun Y12 () Real )
(declare-fun X13 () Real )
(declare-fun Y13 () Real )
(declare-fun X14 () Real )
(declare-fun Y14 () Real )
(declare-fun X15 () Real )
(declare-fun Y15 () Real )
(declare-fun X16 () Real )
(declare-fun Y16 () Real )
(declare-fun X17 () Real )
(declare-fun Y17 () Real )
(declare-fun Z () Real )
(assert ( and  
( or ( <= ( + X0 97 ) X1 )  ( <= ( + X1 93 ) X0 )  ( <= ( + Y0 89 ) Y1 )  ( <= ( + Y1 14 ) Y0 )  )
( or ( <= ( + X0 97 ) X2 )  ( <= ( + X2 26 ) X0 )  ( <= ( + Y0 89 ) Y2 )  ( <= ( + Y2 44 ) Y0 )  )
( or ( <= ( + X0 97 ) X3 )  ( <= ( + X3 42 ) X0 )  ( <= ( + Y0 89 ) Y3 )  ( <= ( + Y3 83 ) Y0 )  )
( or ( <= ( + X0 97 ) X4 )  ( <= ( + X4 85 ) X0 )  ( <= ( + Y0 89 ) Y4 )  ( <= ( + Y4 89 ) Y0 )  )
( or ( <= ( + X0 97 ) X5 )  ( <= ( + X5 13 ) X0 )  ( <= ( + Y0 89 ) Y5 )  ( <= ( + Y5 46 ) Y0 )  )
( or ( <= ( + X0 97 ) X6 )  ( <= ( + X6 52 ) X0 )  ( <= ( + Y0 89 ) Y6 )  ( <= ( + Y6 54 ) Y0 )  )
( or ( <= ( + X0 97 ) X7 )  ( <= ( + X7 82 ) X0 )  ( <= ( + Y0 89 ) Y7 )  ( <= ( + Y7 14 ) Y0 )  )
( or ( <= ( + X0 97 ) X8 )  ( <= ( + X8 28 ) X0 )  ( <= ( + Y0 89 ) Y8 )  ( <= ( + Y8 99 ) Y0 )  )
( or ( <= ( + X0 97 ) X9 )  ( <= ( + X9 29 ) X0 )  ( <= ( + Y0 89 ) Y9 )  ( <= ( + Y9 99 ) Y0 )  )
( or ( <= ( + X0 97 ) X10 )  ( <= ( + X10 12 ) X0 )  ( <= ( + Y0 89 ) Y10 )  ( <= ( + Y10 88 ) Y0 )  )
( or ( <= ( + X0 97 ) X11 )  ( <= ( + X11 100 ) X0 )  ( <= ( + Y0 89 ) Y11 )  ( <= ( + Y11 71 ) Y0 )  )
( or ( <= ( + X0 97 ) X12 )  ( <= ( + X12 54 ) X0 )  ( <= ( + Y0 89 ) Y12 )  ( <= ( + Y12 49 ) Y0 )  )
( or ( <= ( + X0 97 ) X13 )  ( <= ( + X13 16 ) X0 )  ( <= ( + Y0 89 ) Y13 )  ( <= ( + Y13 36 ) Y0 )  )
( or ( <= ( + X0 97 ) X14 )  ( <= ( + X14 59 ) X0 )  ( <= ( + Y0 89 ) Y14 )  ( <= ( + Y14 15 ) Y0 )  )
( or ( <= ( + X0 97 ) X15 )  ( <= ( + X15 25 ) X0 )  ( <= ( + Y0 89 ) Y15 )  ( <= ( + Y15 74 ) Y0 )  )
( or ( <= ( + X0 97 ) X16 )  ( <= ( + X16 31 ) X0 )  ( <= ( + Y0 89 ) Y16 )  ( <= ( + Y16 77 ) Y0 )  )
( or ( <= ( + X0 97 ) X17 )  ( <= ( + X17 9 ) X0 )  ( <= ( + Y0 89 ) Y17 )  ( <= ( + Y17 100 ) Y0 )  )
( or ( <= ( + X1 93 ) X2 )  ( <= ( + X2 26 ) X1 )  ( <= ( + Y1 14 ) Y2 )  ( <= ( + Y2 44 ) Y1 )  )
( or ( <= ( + X1 93 ) X3 )  ( <= ( + X3 42 ) X1 )  ( <= ( + Y1 14 ) Y3 )  ( <= ( + Y3 83 ) Y1 )  )
( or ( <= ( + X1 93 ) X4 )  ( <= ( + X4 85 ) X1 )  ( <= ( + Y1 14 ) Y4 )  ( <= ( + Y4 89 ) Y1 )  )
( or ( <= ( + X1 93 ) X5 )  ( <= ( + X5 13 ) X1 )  ( <= ( + Y1 14 ) Y5 )  ( <= ( + Y5 46 ) Y1 )  )
( or ( <= ( + X1 93 ) X6 )  ( <= ( + X6 52 ) X1 )  ( <= ( + Y1 14 ) Y6 )  ( <= ( + Y6 54 ) Y1 )  )
( or ( <= ( + X1 93 ) X7 )  ( <= ( + X7 82 ) X1 )  ( <= ( + Y1 14 ) Y7 )  ( <= ( + Y7 14 ) Y1 )  )
( or ( <= ( + X1 93 ) X8 )  ( <= ( + X8 28 ) X1 )  ( <= ( + Y1 14 ) Y8 )  ( <= ( + Y8 99 ) Y1 )  )
( or ( <= ( + X1 93 ) X9 )  ( <= ( + X9 29 ) X1 )  ( <= ( + Y1 14 ) Y9 )  ( <= ( + Y9 99 ) Y1 )  )
( or ( <= ( + X1 93 ) X10 )  ( <= ( + X10 12 ) X1 )  ( <= ( + Y1 14 ) Y10 )  ( <= ( + Y10 88 ) Y1 )  )
( or ( <= ( + X1 93 ) X11 )  ( <= ( + X11 100 ) X1 )  ( <= ( + Y1 14 ) Y11 )  ( <= ( + Y11 71 ) Y1 )  )
( or ( <= ( + X1 93 ) X12 )  ( <= ( + X12 54 ) X1 )  ( <= ( + Y1 14 ) Y12 )  ( <= ( + Y12 49 ) Y1 )  )
( or ( <= ( + X1 93 ) X13 )  ( <= ( + X13 16 ) X1 )  ( <= ( + Y1 14 ) Y13 )  ( <= ( + Y13 36 ) Y1 )  )
( or ( <= ( + X1 93 ) X14 )  ( <= ( + X14 59 ) X1 )  ( <= ( + Y1 14 ) Y14 )  ( <= ( + Y14 15 ) Y1 )  )
( or ( <= ( + X1 93 ) X15 )  ( <= ( + X15 25 ) X1 )  ( <= ( + Y1 14 ) Y15 )  ( <= ( + Y15 74 ) Y1 )  )
( or ( <= ( + X1 93 ) X16 )  ( <= ( + X16 31 ) X1 )  ( <= ( + Y1 14 ) Y16 )  ( <= ( + Y16 77 ) Y1 )  )
( or ( <= ( + X1 93 ) X17 )  ( <= ( + X17 9 ) X1 )  ( <= ( + Y1 14 ) Y17 )  ( <= ( + Y17 100 ) Y1 )  )
( or ( <= ( + X2 26 ) X3 )  ( <= ( + X3 42 ) X2 )  ( <= ( + Y2 44 ) Y3 )  ( <= ( + Y3 83 ) Y2 )  )
( or ( <= ( + X2 26 ) X4 )  ( <= ( + X4 85 ) X2 )  ( <= ( + Y2 44 ) Y4 )  ( <= ( + Y4 89 ) Y2 )  )
( or ( <= ( + X2 26 ) X5 )  ( <= ( + X5 13 ) X2 )  ( <= ( + Y2 44 ) Y5 )  ( <= ( + Y5 46 ) Y2 )  )
( or ( <= ( + X2 26 ) X6 )  ( <= ( + X6 52 ) X2 )  ( <= ( + Y2 44 ) Y6 )  ( <= ( + Y6 54 ) Y2 )  )
( or ( <= ( + X2 26 ) X7 )  ( <= ( + X7 82 ) X2 )  ( <= ( + Y2 44 ) Y7 )  ( <= ( + Y7 14 ) Y2 )  )
( or ( <= ( + X2 26 ) X8 )  ( <= ( + X8 28 ) X2 )  ( <= ( + Y2 44 ) Y8 )  ( <= ( + Y8 99 ) Y2 )  )
( or ( <= ( + X2 26 ) X9 )  ( <= ( + X9 29 ) X2 )  ( <= ( + Y2 44 ) Y9 )  ( <= ( + Y9 99 ) Y2 )  )
( or ( <= ( + X2 26 ) X10 )  ( <= ( + X10 12 ) X2 )  ( <= ( + Y2 44 ) Y10 )  ( <= ( + Y10 88 ) Y2 )  )
( or ( <= ( + X2 26 ) X11 )  ( <= ( + X11 100 ) X2 )  ( <= ( + Y2 44 ) Y11 )  ( <= ( + Y11 71 ) Y2 )  )
( or ( <= ( + X2 26 ) X12 )  ( <= ( + X12 54 ) X2 )  ( <= ( + Y2 44 ) Y12 )  ( <= ( + Y12 49 ) Y2 )  )
( or ( <= ( + X2 26 ) X13 )  ( <= ( + X13 16 ) X2 )  ( <= ( + Y2 44 ) Y13 )  ( <= ( + Y13 36 ) Y2 )  )
( or ( <= ( + X2 26 ) X14 )  ( <= ( + X14 59 ) X2 )  ( <= ( + Y2 44 ) Y14 )  ( <= ( + Y14 15 ) Y2 )  )
( or ( <= ( + X2 26 ) X15 )  ( <= ( + X15 25 ) X2 )  ( <= ( + Y2 44 ) Y15 )  ( <= ( + Y15 74 ) Y2 )  )
( or ( <= ( + X2 26 ) X16 )  ( <= ( + X16 31 ) X2 )  ( <= ( + Y2 44 ) Y16 )  ( <= ( + Y16 77 ) Y2 )  )
( or ( <= ( + X2 26 ) X17 )  ( <= ( + X17 9 ) X2 )  ( <= ( + Y2 44 ) Y17 )  ( <= ( + Y17 100 ) Y2 )  )
( or ( <= ( + X3 42 ) X4 )  ( <= ( + X4 85 ) X3 )  ( <= ( + Y3 83 ) Y4 )  ( <= ( + Y4 89 ) Y3 )  )
( or ( <= ( + X3 42 ) X5 )  ( <= ( + X5 13 ) X3 )  ( <= ( + Y3 83 ) Y5 )  ( <= ( + Y5 46 ) Y3 )  )
( or ( <= ( + X3 42 ) X6 )  ( <= ( + X6 52 ) X3 )  ( <= ( + Y3 83 ) Y6 )  ( <= ( + Y6 54 ) Y3 )  )
( or ( <= ( + X3 42 ) X7 )  ( <= ( + X7 82 ) X3 )  ( <= ( + Y3 83 ) Y7 )  ( <= ( + Y7 14 ) Y3 )  )
( or ( <= ( + X3 42 ) X8 )  ( <= ( + X8 28 ) X3 )  ( <= ( + Y3 83 ) Y8 )  ( <= ( + Y8 99 ) Y3 )  )
( or ( <= ( + X3 42 ) X9 )  ( <= ( + X9 29 ) X3 )  ( <= ( + Y3 83 ) Y9 )  ( <= ( + Y9 99 ) Y3 )  )
( or ( <= ( + X3 42 ) X10 )  ( <= ( + X10 12 ) X3 )  ( <= ( + Y3 83 ) Y10 )  ( <= ( + Y10 88 ) Y3 )  )
( or ( <= ( + X3 42 ) X11 )  ( <= ( + X11 100 ) X3 )  ( <= ( + Y3 83 ) Y11 )  ( <= ( + Y11 71 ) Y3 )  )
( or ( <= ( + X3 42 ) X12 )  ( <= ( + X12 54 ) X3 )  ( <= ( + Y3 83 ) Y12 )  ( <= ( + Y12 49 ) Y3 )  )
( or ( <= ( + X3 42 ) X13 )  ( <= ( + X13 16 ) X3 )  ( <= ( + Y3 83 ) Y13 )  ( <= ( + Y13 36 ) Y3 )  )
( or ( <= ( + X3 42 ) X14 )  ( <= ( + X14 59 ) X3 )  ( <= ( + Y3 83 ) Y14 )  ( <= ( + Y14 15 ) Y3 )  )
( or ( <= ( + X3 42 ) X15 )  ( <= ( + X15 25 ) X3 )  ( <= ( + Y3 83 ) Y15 )  ( <= ( + Y15 74 ) Y3 )  )
( or ( <= ( + X3 42 ) X16 )  ( <= ( + X16 31 ) X3 )  ( <= ( + Y3 83 ) Y16 )  ( <= ( + Y16 77 ) Y3 )  )
( or ( <= ( + X3 42 ) X17 )  ( <= ( + X17 9 ) X3 )  ( <= ( + Y3 83 ) Y17 )  ( <= ( + Y17 100 ) Y3 )  )
( or ( <= ( + X4 85 ) X5 )  ( <= ( + X5 13 ) X4 )  ( <= ( + Y4 89 ) Y5 )  ( <= ( + Y5 46 ) Y4 )  )
( or ( <= ( + X4 85 ) X6 )  ( <= ( + X6 52 ) X4 )  ( <= ( + Y4 89 ) Y6 )  ( <= ( + Y6 54 ) Y4 )  )
( or ( <= ( + X4 85 ) X7 )  ( <= ( + X7 82 ) X4 )  ( <= ( + Y4 89 ) Y7 )  ( <= ( + Y7 14 ) Y4 )  )
( or ( <= ( + X4 85 ) X8 )  ( <= ( + X8 28 ) X4 )  ( <= ( + Y4 89 ) Y8 )  ( <= ( + Y8 99 ) Y4 )  )
( or ( <= ( + X4 85 ) X9 )  ( <= ( + X9 29 ) X4 )  ( <= ( + Y4 89 ) Y9 )  ( <= ( + Y9 99 ) Y4 )  )
( or ( <= ( + X4 85 ) X10 )  ( <= ( + X10 12 ) X4 )  ( <= ( + Y4 89 ) Y10 )  ( <= ( + Y10 88 ) Y4 )  )
( or ( <= ( + X4 85 ) X11 )  ( <= ( + X11 100 ) X4 )  ( <= ( + Y4 89 ) Y11 )  ( <= ( + Y11 71 ) Y4 )  )
( or ( <= ( + X4 85 ) X12 )  ( <= ( + X12 54 ) X4 )  ( <= ( + Y4 89 ) Y12 )  ( <= ( + Y12 49 ) Y4 )  )
( or ( <= ( + X4 85 ) X13 )  ( <= ( + X13 16 ) X4 )  ( <= ( + Y4 89 ) Y13 )  ( <= ( + Y13 36 ) Y4 )  )
( or ( <= ( + X4 85 ) X14 )  ( <= ( + X14 59 ) X4 )  ( <= ( + Y4 89 ) Y14 )  ( <= ( + Y14 15 ) Y4 )  )
( or ( <= ( + X4 85 ) X15 )  ( <= ( + X15 25 ) X4 )  ( <= ( + Y4 89 ) Y15 )  ( <= ( + Y15 74 ) Y4 )  )
( or ( <= ( + X4 85 ) X16 )  ( <= ( + X16 31 ) X4 )  ( <= ( + Y4 89 ) Y16 )  ( <= ( + Y16 77 ) Y4 )  )
( or ( <= ( + X4 85 ) X17 )  ( <= ( + X17 9 ) X4 )  ( <= ( + Y4 89 ) Y17 )  ( <= ( + Y17 100 ) Y4 )  )
( or ( <= ( + X5 13 ) X6 )  ( <= ( + X6 52 ) X5 )  ( <= ( + Y5 46 ) Y6 )  ( <= ( + Y6 54 ) Y5 )  )
( or ( <= ( + X5 13 ) X7 )  ( <= ( + X7 82 ) X5 )  ( <= ( + Y5 46 ) Y7 )  ( <= ( + Y7 14 ) Y5 )  )
( or ( <= ( + X5 13 ) X8 )  ( <= ( + X8 28 ) X5 )  ( <= ( + Y5 46 ) Y8 )  ( <= ( + Y8 99 ) Y5 )  )
( or ( <= ( + X5 13 ) X9 )  ( <= ( + X9 29 ) X5 )  ( <= ( + Y5 46 ) Y9 )  ( <= ( + Y9 99 ) Y5 )  )
( or ( <= ( + X5 13 ) X10 )  ( <= ( + X10 12 ) X5 )  ( <= ( + Y5 46 ) Y10 )  ( <= ( + Y10 88 ) Y5 )  )
( or ( <= ( + X5 13 ) X11 )  ( <= ( + X11 100 ) X5 )  ( <= ( + Y5 46 ) Y11 )  ( <= ( + Y11 71 ) Y5 )  )
( or ( <= ( + X5 13 ) X12 )  ( <= ( + X12 54 ) X5 )  ( <= ( + Y5 46 ) Y12 )  ( <= ( + Y12 49 ) Y5 )  )
( or ( <= ( + X5 13 ) X13 )  ( <= ( + X13 16 ) X5 )  ( <= ( + Y5 46 ) Y13 )  ( <= ( + Y13 36 ) Y5 )  )
( or ( <= ( + X5 13 ) X14 )  ( <= ( + X14 59 ) X5 )  ( <= ( + Y5 46 ) Y14 )  ( <= ( + Y14 15 ) Y5 )  )
( or ( <= ( + X5 13 ) X15 )  ( <= ( + X15 25 ) X5 )  ( <= ( + Y5 46 ) Y15 )  ( <= ( + Y15 74 ) Y5 )  )
( or ( <= ( + X5 13 ) X16 )  ( <= ( + X16 31 ) X5 )  ( <= ( + Y5 46 ) Y16 )  ( <= ( + Y16 77 ) Y5 )  )
( or ( <= ( + X5 13 ) X17 )  ( <= ( + X17 9 ) X5 )  ( <= ( + Y5 46 ) Y17 )  ( <= ( + Y17 100 ) Y5 )  )
( or ( <= ( + X6 52 ) X7 )  ( <= ( + X7 82 ) X6 )  ( <= ( + Y6 54 ) Y7 )  ( <= ( + Y7 14 ) Y6 )  )
( or ( <= ( + X6 52 ) X8 )  ( <= ( + X8 28 ) X6 )  ( <= ( + Y6 54 ) Y8 )  ( <= ( + Y8 99 ) Y6 )  )
( or ( <= ( + X6 52 ) X9 )  ( <= ( + X9 29 ) X6 )  ( <= ( + Y6 54 ) Y9 )  ( <= ( + Y9 99 ) Y6 )  )
( or ( <= ( + X6 52 ) X10 )  ( <= ( + X10 12 ) X6 )  ( <= ( + Y6 54 ) Y10 )  ( <= ( + Y10 88 ) Y6 )  )
( or ( <= ( + X6 52 ) X11 )  ( <= ( + X11 100 ) X6 )  ( <= ( + Y6 54 ) Y11 )  ( <= ( + Y11 71 ) Y6 )  )
( or ( <= ( + X6 52 ) X12 )  ( <= ( + X12 54 ) X6 )  ( <= ( + Y6 54 ) Y12 )  ( <= ( + Y12 49 ) Y6 )  )
( or ( <= ( + X6 52 ) X13 )  ( <= ( + X13 16 ) X6 )  ( <= ( + Y6 54 ) Y13 )  ( <= ( + Y13 36 ) Y6 )  )
( or ( <= ( + X6 52 ) X14 )  ( <= ( + X14 59 ) X6 )  ( <= ( + Y6 54 ) Y14 )  ( <= ( + Y14 15 ) Y6 )  )
( or ( <= ( + X6 52 ) X15 )  ( <= ( + X15 25 ) X6 )  ( <= ( + Y6 54 ) Y15 )  ( <= ( + Y15 74 ) Y6 )  )
( or ( <= ( + X6 52 ) X16 )  ( <= ( + X16 31 ) X6 )  ( <= ( + Y6 54 ) Y16 )  ( <= ( + Y16 77 ) Y6 )  )
( or ( <= ( + X6 52 ) X17 )  ( <= ( + X17 9 ) X6 )  ( <= ( + Y6 54 ) Y17 )  ( <= ( + Y17 100 ) Y6 )  )
( or ( <= ( + X7 82 ) X8 )  ( <= ( + X8 28 ) X7 )  ( <= ( + Y7 14 ) Y8 )  ( <= ( + Y8 99 ) Y7 )  )
( or ( <= ( + X7 82 ) X9 )  ( <= ( + X9 29 ) X7 )  ( <= ( + Y7 14 ) Y9 )  ( <= ( + Y9 99 ) Y7 )  )
( or ( <= ( + X7 82 ) X10 )  ( <= ( + X10 12 ) X7 )  ( <= ( + Y7 14 ) Y10 )  ( <= ( + Y10 88 ) Y7 )  )
( or ( <= ( + X7 82 ) X11 )  ( <= ( + X11 100 ) X7 )  ( <= ( + Y7 14 ) Y11 )  ( <= ( + Y11 71 ) Y7 )  )
( or ( <= ( + X7 82 ) X12 )  ( <= ( + X12 54 ) X7 )  ( <= ( + Y7 14 ) Y12 )  ( <= ( + Y12 49 ) Y7 )  )
( or ( <= ( + X7 82 ) X13 )  ( <= ( + X13 16 ) X7 )  ( <= ( + Y7 14 ) Y13 )  ( <= ( + Y13 36 ) Y7 )  )
( or ( <= ( + X7 82 ) X14 )  ( <= ( + X14 59 ) X7 )  ( <= ( + Y7 14 ) Y14 )  ( <= ( + Y14 15 ) Y7 )  )
( or ( <= ( + X7 82 ) X15 )  ( <= ( + X15 25 ) X7 )  ( <= ( + Y7 14 ) Y15 )  ( <= ( + Y15 74 ) Y7 )  )
( or ( <= ( + X7 82 ) X16 )  ( <= ( + X16 31 ) X7 )  ( <= ( + Y7 14 ) Y16 )  ( <= ( + Y16 77 ) Y7 )  )
( or ( <= ( + X7 82 ) X17 )  ( <= ( + X17 9 ) X7 )  ( <= ( + Y7 14 ) Y17 )  ( <= ( + Y17 100 ) Y7 )  )
( or ( <= ( + X8 28 ) X9 )  ( <= ( + X9 29 ) X8 )  ( <= ( + Y8 99 ) Y9 )  ( <= ( + Y9 99 ) Y8 )  )
( or ( <= ( + X8 28 ) X10 )  ( <= ( + X10 12 ) X8 )  ( <= ( + Y8 99 ) Y10 )  ( <= ( + Y10 88 ) Y8 )  )
( or ( <= ( + X8 28 ) X11 )  ( <= ( + X11 100 ) X8 )  ( <= ( + Y8 99 ) Y11 )  ( <= ( + Y11 71 ) Y8 )  )
( or ( <= ( + X8 28 ) X12 )  ( <= ( + X12 54 ) X8 )  ( <= ( + Y8 99 ) Y12 )  ( <= ( + Y12 49 ) Y8 )  )
( or ( <= ( + X8 28 ) X13 )  ( <= ( + X13 16 ) X8 )  ( <= ( + Y8 99 ) Y13 )  ( <= ( + Y13 36 ) Y8 )  )
( or ( <= ( + X8 28 ) X14 )  ( <= ( + X14 59 ) X8 )  ( <= ( + Y8 99 ) Y14 )  ( <= ( + Y14 15 ) Y8 )  )
( or ( <= ( + X8 28 ) X15 )  ( <= ( + X15 25 ) X8 )  ( <= ( + Y8 99 ) Y15 )  ( <= ( + Y15 74 ) Y8 )  )
( or ( <= ( + X8 28 ) X16 )  ( <= ( + X16 31 ) X8 )  ( <= ( + Y8 99 ) Y16 )  ( <= ( + Y16 77 ) Y8 )  )
( or ( <= ( + X8 28 ) X17 )  ( <= ( + X17 9 ) X8 )  ( <= ( + Y8 99 ) Y17 )  ( <= ( + Y17 100 ) Y8 )  )
( or ( <= ( + X9 29 ) X10 )  ( <= ( + X10 12 ) X9 )  ( <= ( + Y9 99 ) Y10 )  ( <= ( + Y10 88 ) Y9 )  )
( or ( <= ( + X9 29 ) X11 )  ( <= ( + X11 100 ) X9 )  ( <= ( + Y9 99 ) Y11 )  ( <= ( + Y11 71 ) Y9 )  )
( or ( <= ( + X9 29 ) X12 )  ( <= ( + X12 54 ) X9 )  ( <= ( + Y9 99 ) Y12 )  ( <= ( + Y12 49 ) Y9 )  )
( or ( <= ( + X9 29 ) X13 )  ( <= ( + X13 16 ) X9 )  ( <= ( + Y9 99 ) Y13 )  ( <= ( + Y13 36 ) Y9 )  )
( or ( <= ( + X9 29 ) X14 )  ( <= ( + X14 59 ) X9 )  ( <= ( + Y9 99 ) Y14 )  ( <= ( + Y14 15 ) Y9 )  )
( or ( <= ( + X9 29 ) X15 )  ( <= ( + X15 25 ) X9 )  ( <= ( + Y9 99 ) Y15 )  ( <= ( + Y15 74 ) Y9 )  )
( or ( <= ( + X9 29 ) X16 )  ( <= ( + X16 31 ) X9 )  ( <= ( + Y9 99 ) Y16 )  ( <= ( + Y16 77 ) Y9 )  )
( or ( <= ( + X9 29 ) X17 )  ( <= ( + X17 9 ) X9 )  ( <= ( + Y9 99 ) Y17 )  ( <= ( + Y17 100 ) Y9 )  )
( or ( <= ( + X10 12 ) X11 )  ( <= ( + X11 100 ) X10 )  ( <= ( + Y10 88 ) Y11 )  ( <= ( + Y11 71 ) Y10 )  )
( or ( <= ( + X10 12 ) X12 )  ( <= ( + X12 54 ) X10 )  ( <= ( + Y10 88 ) Y12 )  ( <= ( + Y12 49 ) Y10 )  )
( or ( <= ( + X10 12 ) X13 )  ( <= ( + X13 16 ) X10 )  ( <= ( + Y10 88 ) Y13 )  ( <= ( + Y13 36 ) Y10 )  )
( or ( <= ( + X10 12 ) X14 )  ( <= ( + X14 59 ) X10 )  ( <= ( + Y10 88 ) Y14 )  ( <= ( + Y14 15 ) Y10 )  )
( or ( <= ( + X10 12 ) X15 )  ( <= ( + X15 25 ) X10 )  ( <= ( + Y10 88 ) Y15 )  ( <= ( + Y15 74 ) Y10 )  )
( or ( <= ( + X10 12 ) X16 )  ( <= ( + X16 31 ) X10 )  ( <= ( + Y10 88 ) Y16 )  ( <= ( + Y16 77 ) Y10 )  )
( or ( <= ( + X10 12 ) X17 )  ( <= ( + X17 9 ) X10 )  ( <= ( + Y10 88 ) Y17 )  ( <= ( + Y17 100 ) Y10 )  )
( or ( <= ( + X11 100 ) X12 )  ( <= ( + X12 54 ) X11 )  ( <= ( + Y11 71 ) Y12 )  ( <= ( + Y12 49 ) Y11 )  )
( or ( <= ( + X11 100 ) X13 )  ( <= ( + X13 16 ) X11 )  ( <= ( + Y11 71 ) Y13 )  ( <= ( + Y13 36 ) Y11 )  )
( or ( <= ( + X11 100 ) X14 )  ( <= ( + X14 59 ) X11 )  ( <= ( + Y11 71 ) Y14 )  ( <= ( + Y14 15 ) Y11 )  )
( or ( <= ( + X11 100 ) X15 )  ( <= ( + X15 25 ) X11 )  ( <= ( + Y11 71 ) Y15 )  ( <= ( + Y15 74 ) Y11 )  )
( or ( <= ( + X11 100 ) X16 )  ( <= ( + X16 31 ) X11 )  ( <= ( + Y11 71 ) Y16 )  ( <= ( + Y16 77 ) Y11 )  )
( or ( <= ( + X11 100 ) X17 )  ( <= ( + X17 9 ) X11 )  ( <= ( + Y11 71 ) Y17 )  ( <= ( + Y17 100 ) Y11 )  )
( or ( <= ( + X12 54 ) X13 )  ( <= ( + X13 16 ) X12 )  ( <= ( + Y12 49 ) Y13 )  ( <= ( + Y13 36 ) Y12 )  )
( or ( <= ( + X12 54 ) X14 )  ( <= ( + X14 59 ) X12 )  ( <= ( + Y12 49 ) Y14 )  ( <= ( + Y14 15 ) Y12 )  )
( or ( <= ( + X12 54 ) X15 )  ( <= ( + X15 25 ) X12 )  ( <= ( + Y12 49 ) Y15 )  ( <= ( + Y15 74 ) Y12 )  )
( or ( <= ( + X12 54 ) X16 )  ( <= ( + X16 31 ) X12 )  ( <= ( + Y12 49 ) Y16 )  ( <= ( + Y16 77 ) Y12 )  )
( or ( <= ( + X12 54 ) X17 )  ( <= ( + X17 9 ) X12 )  ( <= ( + Y12 49 ) Y17 )  ( <= ( + Y17 100 ) Y12 )  )
( or ( <= ( + X13 16 ) X14 )  ( <= ( + X14 59 ) X13 )  ( <= ( + Y13 36 ) Y14 )  ( <= ( + Y14 15 ) Y13 )  )
( or ( <= ( + X13 16 ) X15 )  ( <= ( + X15 25 ) X13 )  ( <= ( + Y13 36 ) Y15 )  ( <= ( + Y15 74 ) Y13 )  )
( or ( <= ( + X13 16 ) X16 )  ( <= ( + X16 31 ) X13 )  ( <= ( + Y13 36 ) Y16 )  ( <= ( + Y16 77 ) Y13 )  )
( or ( <= ( + X13 16 ) X17 )  ( <= ( + X17 9 ) X13 )  ( <= ( + Y13 36 ) Y17 )  ( <= ( + Y17 100 ) Y13 )  )
( or ( <= ( + X14 59 ) X15 )  ( <= ( + X15 25 ) X14 )  ( <= ( + Y14 15 ) Y15 )  ( <= ( + Y15 74 ) Y14 )  )
( or ( <= ( + X14 59 ) X16 )  ( <= ( + X16 31 ) X14 )  ( <= ( + Y14 15 ) Y16 )  ( <= ( + Y16 77 ) Y14 )  )
( or ( <= ( + X14 59 ) X17 )  ( <= ( + X17 9 ) X14 )  ( <= ( + Y14 15 ) Y17 )  ( <= ( + Y17 100 ) Y14 )  )
( or ( <= ( + X15 25 ) X16 )  ( <= ( + X16 31 ) X15 )  ( <= ( + Y15 74 ) Y16 )  ( <= ( + Y16 77 ) Y15 )  )
( or ( <= ( + X15 25 ) X17 )  ( <= ( + X17 9 ) X15 )  ( <= ( + Y15 74 ) Y17 )  ( <= ( + Y17 100 ) Y15 )  )
( or ( <= ( + X16 31 ) X17 )  ( <= ( + X17 9 ) X16 )  ( <= ( + Y16 77 ) Y17 )  ( <= ( + Y17 100 ) Y16 )  )
( >= X0 0)
( <= ( + X0 97) Z)
( >= Y0 0)
( <= ( + Y0 89 ) 100)
( >= X1 0)
( <= ( + X1 93) Z)
( >= Y1 0)
( <= ( + Y1 14 ) 100)
( >= X2 0)
( <= ( + X2 26) Z)
( >= Y2 0)
( <= ( + Y2 44 ) 100)
( >= X3 0)
( <= ( + X3 42) Z)
( >= Y3 0)
( <= ( + Y3 83 ) 100)
( >= X4 0)
( <= ( + X4 85) Z)
( >= Y4 0)
( <= ( + Y4 89 ) 100)
( >= X5 0)
( <= ( + X5 13) Z)
( >= Y5 0)
( <= ( + Y5 46 ) 100)
( >= X6 0)
( <= ( + X6 52) Z)
( >= Y6 0)
( <= ( + Y6 54 ) 100)
( >= X7 0)
( <= ( + X7 82) Z)
( >= Y7 0)
( <= ( + Y7 14 ) 100)
( >= X8 0)
( <= ( + X8 28) Z)
( >= Y8 0)
( <= ( + Y8 99 ) 100)
( >= X9 0)
( <= ( + X9 29) Z)
( >= Y9 0)
( <= ( + Y9 99 ) 100)
( >= X10 0)
( <= ( + X10 12) Z)
( >= Y10 0)
( <= ( + Y10 88 ) 100)
( >= X11 0)
( <= ( + X11 100) Z)
( >= Y11 0)
( <= ( + Y11 71 ) 100)
( >= X12 0)
( <= ( + X12 54) Z)
( >= Y12 0)
( <= ( + Y12 49 ) 100)
( >= X13 0)
( <= ( + X13 16) Z)
( >= Y13 0)
( <= ( + Y13 36 ) 100)
( >= X14 0)
( <= ( + X14 59) Z)
( >= Y14 0)
( <= ( + Y14 15 ) 100)
( >= X15 0)
( <= ( + X15 25) Z)
( >= Y15 0)
( <= ( + Y15 74 ) 100)
( >= X16 0)
( <= ( + X16 31) Z)
( >= Y16 0)
( <= ( + Y16 77 ) 100)
( >= X17 0)
( <= ( + X17 9) Z)
( >= Y17 0)
( <= ( + Y17 100 ) 100)
) )
(minimize Z)
(check-sat)
